(set-logic ALL)
(define-sort SetInt () (Set Int))
(get-model)
(declare-fun A () (Set Int))
(declare-fun B () (Set Int))
(declare-fun x () Int)
(assert (member x B))
(push 1)
(assert (not (member x (union A B))))
(check-sat)
(get-model)
(pop 1)
(check-sat)